NAME: CMT12_2
TYPE: CVRP
COMMENT: 819.56 - Cluster Nr.2
DIMENSION: 18
CAPACITY: 200
EDGE_WEIGHT_TYPE: EUC_2D
NODE_COORD_TYPE: TWOD_COORDS
NODE_COORD_SECTION: 
12 35 30
5 33 35
14 28 30
2 33 32
1 25 35
7 25 30
13 28 35
15 26 32
3 45 30
9 45 35
16 30 32
11 40 50
17 30 30
4 30 35
18 32 30
10 48 30
8 35 32
6 47 35
DEPOT_SECTION: 
11
-1
DEMAND_SECTION: 
3 10
5 10
14 10
10 10
8 10
15 10
6 10
4 10
12 10
16 30
13 10
2 20
1 10
11 0
9 10
7 10
18 10
17 10
EOF
